12 16 9 10
6 9 14 16 13 17 4 9 10 14 20 19 4 17 18 9 
2.33 14.82 5.95 1.18 3.82 14.52 6.17 12.57 15.01 5.88 2.41 12.63 12.16 13.7 10.64 3.54 
15.84 2.27 10.77 10.22 6.79 3.12 7.65 14.7 12.64 1.23 8.22 5.08 10.65 2.59 4.03 7.82 
1.79 2.1 7.39 12.24 8.79 0.67 11.52 12.52 15.85 9.66 12.18 13.26 11.46 8.64 2.15 7.78 
13.96 1.62 1.53 11.36 3.21 6.96 1.3 8.99 1.92 7.8 14.51 10.05 1.02 8.92 11.8 14.79 
2.32 6.89 10.75 12.71 0.44 11.9 9.33 15.46 1.8 8.95 1.58 12.8 1.27 5.71 9.87 7.89 
3.25 4.38 12.83 3.7 4.03 14.39 8.91 9.99 1.16 0.47 6.97 13.41 6.46 1.63 3.78 14.84 
9.69 15.89 2.55 8.68 1.7 5.27 10.27 0.34 15.83 2.31 1.84 3.19 14.95 13.72 6.2 1.5 
5.9 0.64 10.71 5.93 14.26 10.1 15.73 10.01 5.36 15.97 10.77 11.38 9.69 0.94 2.73 13.06 
13.91 11.71 2.03 0.48 14.56 15.06 12.77 8.07 6.82 1.87 7.91 4.55 4.34 15.12 9.05 4.17 
8 8 8 8 8 8 8 8 8 8 8 8 8 8 8 8 
1.95 10.81 2.24 0.11 1.68 12.39 2.76 10.38 15.94 3.57 6.2 10.24 10.15 11.83 6.41 2.13 
8.96 3.04 12.58 1.76 6.88 9.62 2.36 13.92 10.9 8.06 8.44 10 1.54 14.77 1.47 3.96 
1 1 1 1 1 1 1 1 1 1 1 1 1 1 1 1 
1 1 1 1 1 1 1 1 1 1 1 1 1 1 1 1 
1 1 1 1 1 1 1 1 1 1 1 1 1 1 1 1 
1 1 1 1 1 1 1 1 1 1 1 1 1 1 1 1 
1 1 1 1 1 1 1 1 1 1 1 1 1 1 1 1 
1 1 1 1 1 1 1 1 1 1 1 1 1 1 1 1 
1 1 1 1 1 1 1 1 1 1 1 1 1 1 1 1 
1 1 1 1 1 1 1 1 1 1 1 1 1 1 1 1 
1 1 1 1 1 1 1 1 1 1 1 1 1 1 1 1 
1 1 1 1 1 1 1 1 1 1 1 1 1 1 1 1 
1 1 1 1 1 1 1 1 1 1 1 1 1 1 1 1 
1 1 1 1 1 1 1 1 1 1 1 1 1 1 1 1 
0.01 0.01 0.01 0.01 0.01 0.01 0.01 0.01 0.01 0.01 0.01 0.01 0.01 0.01 0.01 0.01 
0.02 0.02 0.02 0.02 0.02 0.02 0.02 0.02 0.02 0.02 0.02 0.02 0.02 0.02 0.02 0.02 
0.03 0.03 0.03 0.03 0.03 0.03 0.03 0.03 0.03 0.03 0.03 0.03 0.03 0.03 0.03 0.03 
0.04 0.04 0.04 0.04 0.04 0.04 0.04 0.04 0.04 0.04 0.04 0.04 0.04 0.04 0.04 0.04 
0.05 0.05 0.05 0.05 0.05 0.05 0.05 0.05 0.05 0.05 0.05 0.05 0.05 0.05 0.05 0.05 
0.06 0.06 0.06 0.06 0.06 0.06 0.06 0.06 0.06 0.06 0.06 0.06 0.06 0.06 0.06 0.06 
0.07 0.07 0.07 0.07 0.07 0.07 0.07 0.07 0.07 0.07 0.07 0.07 0.07 0.07 0.07 0.07 
0.08 0.08 0.08 0.08 0.08 0.08 0.08 0.08 0.08 0.08 0.08 0.08 0.08 0.08 0.08 0.08 
0.09 0.09 0.09 0.09 0.09 0.09 0.09 0.09 0.09 0.09 0.09 0.09 0.09 0.09 0.09 0.09 
0.1 0.1 0.1 0.1 0.1 0.1 0.1 0.1 0.1 0.1 0.1 0.1 0.1 0.1 0.1 0.1 
0.5 0.5 0.5 0.5 0.5 0.5 0.5 0.5 0.5 0.5 0.5 0.5 0.5 0.5 0.5 0.5 
1 1 1 1 1 1 1 1 1 1 1 1 1 1 1 1 
